NAME : portcgen-18-13
COMMENT : portcgen N=18, seed=13
TYPE : TSP
DIMENSION : 18
EDGE_WEIGHT_TYPE : EUC_2D
NODE_COORD_SECTION
1 206179 -153787
2 -191769 60332
3 243697 -194406
4 124823 246701
5 -119359 60371
6 130098 1072973
7 235895 192972
8 -245012 -152812
9 298327 -208869
10 -106904 -275248
11 61403 -73388
12 -119420 -96753
13 -136553 61015
14 -327124 -143262
15 -163462 -96181
16 68429 -129737
17 291948 281265
18 43078 -177160
